c User generated cnf file
p cnf 14 75
5 2 -13 0 
5 -3 3 0 
13 1 -8 0 
2 5 -2 0 
2 7 -4 0 
2 6 -1 0 
9 -12 14 0 
8 -7 11 0 
5 -10 12 0 
3 5 -2 0 
10 -13 14 0 
4 -3 2 0 
13 -5 6 0 
14 -8 12 0 
14 2 -3 0 
7 9 -8 0 
10 -5 1 0 
1 -13 2 0 
1 10 -1 0 
10 -13 5 0 
5 5 -11 0 
12 -3 12 0 
11 4 -5 0 
10 -2 12 0 
3 -3 14 0 
6 -14 12 0 
13 -2 5 0 
4 -11 10 0 
6 -8 9 0 
3 -13 5 0 
8 2 -2 0 
3 -6 12 0 
5 8 -13 0 
7 -5 5 0 
11 -6 11 0 
14 -12 2 0 
6 13 -4 0 
13 -7 11 0 
12 5 -2 0 
3 -14 8 0 
12 14 -1 0 
4 10 -3 0 
9 10 -13 0 
11 -4 3 0 
11 -2 6 0 
3 3 -7 0 
6 -2 9 0 
7 7 -13 0 
2 -13 13 0 
2 4 -11 0 
13 5 -12 0 
12 9 -4 0 
7 -3 13 0 
8 -9 8 0 
4 -4 2 0 
11 -9 6 0 
1 14 -5 0 
11 -7 5 0 
2 11 -1 0 
9 -6 5 0 
4 -12 3 0 
7 -7 9 0 
8 -2 10 0 
8 -14 14 0 
11 11 -6 0 
2 9 -1 0 
7 11 -5 0 
9 -6 9 0 
13 -6 2 0 
13 11 -13 0 
3 -5 14 0 
1 4 -1 0 
7 -6 4 0 
8 13 -4 0 
10 -10 14 0 
